p tw 20 106
1 14
1 17
1 19
1 20
1 3
1 5
1 6
1 8
2 12
2 13
2 15
2 17
2 20
2 3
2 6
2 7
2 8
2 10
11 12
11 13
11 14
11 15
11 16
12 13
12 16
12 17
12 20
13 15
13 16
13 18
13 19
13 20
14 18
15 16
15 17
15 18
15 19
16 17
16 18
16 19
17 19
17 20
18 20
19 20
3 13
3 14
3 15
3 20
3 4
3 6
3 8
3 10
4 11
4 12
4 13
4 15
4 16
4 18
4 20
4 5
4 8
4 9
5 12
5 13
5 16
5 17
5 18
5 19
5 6
5 8
5 9
5 10
6 14
6 7
6 8
6 9
6 10
7 11
7 14
7 15
7 16
7 17
7 19
7 20
7 8
7 9
7 10
8 11
8 13
8 15
8 17
8 18
8 19
8 20
8 9
8 10
9 16
9 18
9 20
9 10
10 12
10 13
10 14
10 15
10 18
10 19
